4	143	143	0	16	16
5	144	103	0	0	0
6	236	184	0	16	16
7	279	240	0	16	16
8	267	244	0	15	15
9	261	225	0	31	31
10	385	250	0	15	15
11	438	308	0	202	202
12	377	339	0	16	16
13	541	338	0	31	31
14	551	384	0	31	31
15	675	351	0	46	46
16	560	393	0	31	31
17	656	439	0	93	93
18	634	454	0	203	203
19	875	474	0	78	78
